
Gurobi 7.0.2 (linux64, Python) logging started Tue Mar  7 15:57:57 2017


Gurobi 7.0.2 (linux64, Python) logging started Tue Mar  7 16:06:02 2017


Gurobi 7.0.2 (linux64, Python) logging started Tue Mar  7 16:19:25 2017


Gurobi 7.0.2 (linux64, Python) logging started Tue Mar  7 16:19:51 2017

